c Reduced graph for DSJC250.1 generated by Cyril Grelier
p edge 250 3218
e 1 7
e 1 12
e 1 13
e 1 18
e 1 22
e 1 23
e 1 27
e 1 43
e 1 50
e 1 53
e 1 55
e 1 74
e 1 76
e 1 78
e 1 82
e 1 89
e 1 90
e 1 91
e 1 94
e 1 105
e 1 106
e 1 134
e 1 139
e 1 140
e 1 145
e 1 148
e 1 150
e 1 162
e 1 174
e 1 177
e 1 178
e 1 191
e 1 192
e 1 198
e 1 199
e 1 202
e 1 215
e 1 238
e 2 5
e 2 6
e 2 9
e 2 12
e 2 21
e 2 23
e 2 29
e 2 37
e 2 48
e 2 59
e 2 60
e 2 64
e 2 70
e 2 73
e 2 81
e 2 87
e 2 91
e 2 97
e 2 109
e 2 120
e 2 132
e 2 134
e 2 137
e 2 140
e 2 159
e 2 164
e 2 172
e 2 174
e 2 175
e 2 182
e 2 185
e 2 193
e 2 211
e 2 215
e 2 227
e 2 232
e 2 233
e 3 4
e 3 8
e 3 10
e 3 12
e 3 15
e 3 22
e 3 26
e 3 30
e 3 33
e 3 35
e 3 51
e 3 53
e 3 54
e 3 60
e 3 66
e 3 76
e 3 113
e 3 120
e 3 129
e 3 132
e 3 135
e 3 149
e 3 165
e 3 176
e 3 179
e 3 181
e 3 182
e 3 184
e 3 186
e 3 188
e 3 194
e 3 202
e 3 207
e 3 212
e 3 215
e 3 232
e 3 239
e 4 6
e 4 7
e 4 16
e 4 17
e 4 21
e 4 27
e 4 34
e 4 39
e 4 47
e 4 55
e 4 71
e 4 72
e 4 74
e 4 92
e 4 94
e 4 104
e 4 109
e 4 112
e 4 113
e 4 115
e 4 121
e 4 128
e 4 129
e 4 142
e 4 143
e 4 144
e 4 145
e 4 185
e 4 193
e 4 194
e 4 206
e 4 215
e 4 219
e 4 223
e 4 227
e 5 12
e 5 13
e 5 15
e 5 23
e 5 38
e 5 42
e 5 49
e 5 58
e 5 64
e 5 75
e 5 81
e 5 89
e 5 90
e 5 97
e 5 99
e 5 108
e 5 135
e 5 140
e 5 141
e 5 144
e 5 145
e 5 147
e 5 157
e 5 164
e 5 169
e 5 177
e 5 181
e 5 199
e 5 200
e 5 201
e 5 213
e 5 219
e 5 221
e 5 222
e 5 245
e 6 11
e 6 16
e 6 23
e 6 32
e 6 36
e 6 37
e 6 43
e 6 50
e 6 66
e 6 81
e 6 82
e 6 83
e 6 86
e 6 90
e 6 94
e 6 101
e 6 110
e 6 112
e 6 117
e 6 118
e 6 127
e 6 139
e 6 140
e 6 147
e 6 162
e 6 168
e 6 170
e 6 175
e 6 180
e 6 182
e 6 210
e 6 229
e 6 230
e 6 243
e 7 8
e 7 16
e 7 32
e 7 40
e 7 41
e 7 44
e 7 49
e 7 59
e 7 60
e 7 79
e 7 86
e 7 87
e 7 90
e 7 93
e 7 100
e 7 111
e 7 130
e 7 134
e 7 136
e 7 141
e 7 155
e 7 166
e 7 176
e 7 178
e 7 183
e 7 184
e 7 186
e 7 189
e 7 209
e 7 218
e 7 220
e 7 231
e 7 239
e 8 18
e 8 26
e 8 35
e 8 37
e 8 39
e 8 40
e 8 42
e 8 45
e 8 46
e 8 51
e 8 57
e 8 58
e 8 94
e 8 98
e 8 107
e 8 108
e 8 124
e 8 133
e 8 135
e 8 136
e 8 149
e 8 163
e 8 166
e 8 175
e 8 177
e 8 182
e 8 192
e 8 200
e 8 205
e 8 215
e 8 223
e 8 226
e 8 234
e 9 11
e 9 14
e 9 30
e 9 33
e 9 34
e 9 40
e 9 43
e 9 46
e 9 55
e 9 61
e 9 62
e 9 66
e 9 71
e 9 74
e 9 77
e 9 83
e 9 93
e 9 96
e 9 105
e 9 129
e 9 135
e 9 155
e 9 158
e 9 171
e 9 173
e 9 185
e 9 193
e 9 195
e 9 199
e 9 210
e 9 216
e 9 223
e 9 237
e 9 242
e 10 11
e 10 18
e 10 20
e 10 31
e 10 32
e 10 34
e 10 51
e 10 65
e 10 80
e 10 95
e 10 100
e 10 101
e 10 109
e 10 119
e 10 124
e 10 125
e 10 128
e 10 131
e 10 134
e 10 135
e 10 136
e 10 141
e 10 146
e 10 149
e 10 153
e 10 160
e 10 166
e 10 170
e 10 183
e 10 186
e 10 187
e 10 188
e 10 192
e 10 214
e 11 17
e 11 25
e 11 28
e 11 30
e 11 35
e 11 49
e 11 51
e 11 56
e 11 60
e 11 65
e 11 67
e 11 76
e 11 80
e 11 86
e 11 96
e 11 114
e 11 118
e 11 141
e 11 155
e 11 157
e 11 158
e 11 159
e 11 162
e 11 164
e 11 195
e 11 199
e 11 209
e 11 219
e 11 221
e 11 222
e 11 237
e 11 240
e 12 19
e 12 24
e 12 27
e 12 44
e 12 65
e 12 69
e 12 72
e 12 76
e 12 85
e 12 99
e 12 100
e 12 105
e 12 109
e 12 114
e 12 125
e 12 132
e 12 136
e 12 137
e 12 146
e 12 151
e 12 152
e 12 162
e 12 172
e 12 177
e 12 179
e 12 183
e 12 186
e 12 197
e 12 237
e 12 238
e 12 245
e 13 14
e 13 15
e 13 19
e 13 20
e 13 21
e 13 22
e 13 29
e 13 30
e 13 37
e 13 40
e 13 50
e 13 52
e 13 53
e 13 65
e 13 72
e 13 80
e 13 81
e 13 84
e 13 110
e 13 111
e 13 126
e 13 128
e 13 142
e 13 143
e 13 146
e 13 148
e 13 154
e 13 164
e 13 170
e 13 179
e 13 209
e 13 232
e 13 242
e 14 15
e 14 20
e 14 22
e 14 32
e 14 34
e 14 36
e 14 42
e 14 43
e 14 51
e 14 52
e 14 54
e 14 73
e 14 75
e 14 84
e 14 87
e 14 94
e 14 115
e 14 116
e 14 119
e 14 130
e 14 133
e 14 138
e 14 142
e 14 153
e 14 154
e 14 164
e 14 165
e 14 167
e 14 175
e 14 185
e 14 203
e 14 220
e 14 231
e 15 17
e 15 19
e 15 22
e 15 23
e 15 29
e 15 36
e 15 42
e 15 59
e 15 68
e 15 70
e 15 71
e 15 76
e 15 77
e 15 78
e 15 79
e 15 98
e 15 106
e 15 109
e 15 143
e 15 150
e 15 157
e 15 161
e 15 163
e 15 172
e 15 181
e 15 182
e 15 199
e 15 206
e 15 208
e 15 229
e 15 248
e 16 43
e 16 45
e 16 61
e 16 66
e 16 84
e 16 85
e 16 87
e 16 89
e 16 92
e 16 97
e 16 114
e 16 119
e 16 126
e 16 128
e 16 136
e 16 138
e 16 145
e 16 148
e 16 149
e 16 161
e 16 167
e 16 174
e 16 184
e 16 189
e 16 193
e 16 205
e 16 206
e 16 217
e 16 227
e 16 231
e 16 247
e 17 21
e 17 25
e 17 30
e 17 35
e 17 36
e 17 49
e 17 52
e 17 53
e 17 58
e 17 68
e 17 75
e 17 76
e 17 79
e 17 86
e 17 94
e 17 102
e 17 106
e 17 143
e 17 147
e 17 152
e 17 154
e 17 167
e 17 176
e 17 196
e 17 197
e 17 212
e 17 213
e 17 227
e 17 233
e 17 236
e 17 242
e 18 20
e 18 22
e 18 23
e 18 44
e 18 48
e 18 49
e 18 53
e 18 61
e 18 62
e 18 63
e 18 66
e 18 70
e 18 72
e 18 73
e 18 87
e 18 92
e 18 94
e 18 120
e 18 123
e 18 127
e 18 142
e 18 158
e 18 162
e 18 163
e 18 169
e 18 176
e 18 192
e 18 213
e 18 219
e 18 243
e 18 244
e 19 31
e 19 35
e 19 40
e 19 75
e 19 82
e 19 83
e 19 86
e 19 94
e 19 97
e 19 98
e 19 102
e 19 110
e 19 112
e 19 116
e 19 122
e 19 126
e 19 128
e 19 129
e 19 145
e 19 146
e 19 147
e 19 148
e 19 150
e 19 151
e 19 173
e 19 184
e 19 192
e 19 195
e 19 196
e 19 220
e 19 223
e 20 23
e 20 27
e 20 32
e 20 35
e 20 38
e 20 43
e 20 44
e 20 49
e 20 60
e 20 71
e 20 80
e 20 88
e 20 101
e 20 111
e 20 113
e 20 120
e 20 129
e 20 136
e 20 138
e 20 139
e 20 155
e 20 156
e 20 181
e 20 184
e 20 185
e 20 193
e 20 201
e 20 221
e 20 229
e 20 232
e 21 29
e 21 33
e 21 48
e 21 58
e 21 64
e 21 65
e 21 68
e 21 71
e 21 82
e 21 84
e 21 87
e 21 94
e 21 103
e 21 104
e 21 123
e 21 129
e 21 131
e 21 137
e 21 148
e 21 162
e 21 166
e 21 167
e 21 173
e 21 189
e 21 206
e 21 211
e 21 214
e 21 231
e 21 235
e 21 241
e 22 29
e 22 39
e 22 45
e 22 48
e 22 49
e 22 53
e 22 66
e 22 71
e 22 74
e 22 86
e 22 97
e 22 98
e 22 113
e 22 119
e 22 125
e 22 131
e 22 134
e 22 141
e 22 159
e 22 164
e 22 166
e 22 209
e 22 219
e 22 220
e 22 228
e 22 237
e 22 244
e 23 27
e 23 45
e 23 49
e 23 50
e 23 56
e 23 64
e 23 82
e 23 89
e 23 90
e 23 93
e 23 98
e 23 112
e 23 113
e 23 115
e 23 118
e 23 122
e 23 129
e 23 136
e 23 160
e 23 177
e 23 181
e 23 216
e 23 221
e 23 231
e 23 232
e 23 242
e 24 32
e 24 47
e 24 50
e 24 55
e 24 69
e 24 71
e 24 72
e 24 77
e 24 83
e 24 85
e 24 90
e 24 93
e 24 98
e 24 99
e 24 118
e 24 121
e 24 124
e 24 129
e 24 131
e 24 155
e 24 157
e 24 159
e 24 165
e 24 168
e 24 170
e 24 178
e 24 191
e 24 228
e 24 232
e 24 233
e 24 242
e 24 245
e 25 27
e 25 29
e 25 34
e 25 50
e 25 56
e 25 60
e 25 64
e 25 73
e 25 77
e 25 83
e 25 97
e 25 99
e 25 107
e 25 124
e 25 136
e 25 146
e 25 163
e 25 167
e 25 179
e 25 182
e 25 186
e 25 192
e 25 203
e 25 206
e 25 210
e 25 212
e 25 218
e 25 231
e 25 233
e 25 236
e 25 238
e 26 33
e 26 39
e 26 51
e 26 57
e 26 78
e 26 91
e 26 95
e 26 97
e 26 105
e 26 111
e 26 119
e 26 121
e 26 137
e 26 146
e 26 151
e 26 155
e 26 160
e 26 163
e 26 164
e 26 169
e 26 173
e 26 175
e 26 187
e 26 190
e 26 191
e 26 195
e 26 199
e 26 201
e 26 240
e 26 244
e 27 34
e 27 35
e 27 45
e 27 55
e 27 73
e 27 80
e 27 89
e 27 96
e 27 102
e 27 103
e 27 119
e 27 120
e 27 124
e 27 132
e 27 153
e 27 155
e 27 172
e 27 184
e 27 185
e 27 189
e 27 196
e 27 197
e 27 200
e 27 221
e 27 225
e 27 244
e 28 31
e 28 32
e 28 38
e 28 43
e 28 45
e 28 47
e 28 49
e 28 54
e 28 58
e 28 60
e 28 79
e 28 83
e 28 85
e 28 86
e 28 93
e 28 99
e 28 115
e 28 116
e 28 141
e 28 143
e 28 156
e 28 159
e 28 165
e 28 171
e 28 177
e 28 183
e 28 188
e 28 191
e 28 198
e 28 212
e 28 230
e 29 32
e 29 46
e 29 48
e 29 49
e 29 56
e 29 58
e 29 61
e 29 67
e 29 75
e 29 85
e 29 87
e 29 99
e 29 112
e 29 121
e 29 124
e 29 127
e 29 140
e 29 145
e 29 149
e 29 172
e 29 179
e 29 190
e 29 191
e 29 195
e 29 203
e 29 228
e 30 31
e 30 35
e 30 41
e 30 47
e 30 51
e 30 57
e 30 70
e 30 76
e 30 87
e 30 88
e 30 96
e 30 103
e 30 106
e 30 107
e 30 127
e 30 146
e 30 160
e 30 172
e 30 177
e 30 184
e 30 186
e 30 189
e 30 196
e 30 198
e 30 215
e 30 221
e 30 232
e 31 32
e 31 47
e 31 49
e 31 68
e 31 76
e 31 92
e 31 100
e 31 104
e 31 106
e 31 118
e 31 128
e 31 130
e 31 136
e 31 139
e 31 142
e 31 149
e 31 158
e 31 159
e 31 161
e 31 163
e 31 166
e 31 172
e 31 176
e 31 184
e 31 185
e 31 192
e 31 210
e 31 234
e 32 43
e 32 50
e 32 53
e 32 67
e 32 74
e 32 88
e 32 112
e 32 114
e 32 120
e 32 122
e 32 123
e 32 139
e 32 160
e 32 167
e 32 172
e 32 178
e 32 183
e 32 199
e 32 206
e 32 208
e 32 214
e 32 222
e 32 248
e 33 49
e 33 58
e 33 59
e 33 60
e 33 62
e 33 77
e 33 78
e 33 80
e 33 83
e 33 86
e 33 96
e 33 100
e 33 101
e 33 106
e 33 126
e 33 148
e 33 152
e 33 165
e 33 171
e 33 175
e 33 176
e 33 192
e 33 195
e 33 199
e 33 210
e 33 217
e 33 225
e 33 250
e 34 42
e 34 65
e 34 71
e 34 85
e 34 91
e 34 100
e 34 103
e 34 107
e 34 118
e 34 125
e 34 133
e 34 163
e 34 164
e 34 166
e 34 174
e 34 181
e 34 190
e 34 192
e 34 202
e 34 214
e 34 228
e 34 233
e 34 235
e 34 239
e 34 242
e 34 246
e 35 38
e 35 40
e 35 60
e 35 65
e 35 71
e 35 78
e 35 83
e 35 87
e 35 94
e 35 107
e 35 112
e 35 118
e 35 123
e 35 132
e 35 137
e 35 144
e 35 149
e 35 174
e 35 189
e 35 197
e 35 203
e 35 204
e 35 245
e 36 50
e 36 59
e 36 66
e 36 68
e 36 72
e 36 80
e 36 91
e 36 95
e 36 108
e 36 124
e 36 129
e 36 133
e 36 135
e 36 138
e 36 139
e 36 150
e 36 152
e 36 154
e 36 164
e 36 165
e 36 166
e 36 171
e 36 181
e 36 186
e 36 196
e 36 221
e 36 247
e 37 52
e 37 59
e 37 66
e 37 70
e 37 72
e 37 77
e 37 83
e 37 94
e 37 103
e 37 110
e 37 120
e 37 136
e 37 137
e 37 140
e 37 142
e 37 144
e 37 148
e 37 153
e 37 155
e 37 175
e 37 181
e 37 182
e 37 185
e 37 209
e 37 216
e 37 217
e 37 224
e 38 46
e 38 56
e 38 62
e 38 68
e 38 74
e 38 76
e 38 78
e 38 80
e 38 104
e 38 114
e 38 116
e 38 121
e 38 133
e 38 134
e 38 137
e 38 145
e 38 155
e 38 166
e 38 174
e 38 215
e 38 217
e 38 218
e 38 230
e 38 235
e 38 244
e 38 247
e 38 249
e 39 44
e 39 54
e 39 60
e 39 69
e 39 79
e 39 82
e 39 88
e 39 90
e 39 99
e 39 108
e 39 114
e 39 116
e 39 117
e 39 120
e 39 125
e 39 132
e 39 146
e 39 152
e 39 162
e 39 173
e 39 191
e 39 208
e 39 223
e 39 233
e 39 238
e 39 248
e 39 250
e 40 44
e 40 46
e 40 52
e 40 59
e 40 60
e 40 65
e 40 69
e 40 74
e 40 84
e 40 86
e 40 91
e 40 92
e 40 94
e 40 103
e 40 125
e 40 126
e 40 131
e 40 154
e 40 155
e 40 180
e 40 190
e 40 202
e 40 216
e 40 232
e 40 245
e 41 44
e 41 46
e 41 63
e 41 70
e 41 72
e 41 78
e 41 82
e 41 96
e 41 99
e 41 102
e 41 103
e 41 104
e 41 113
e 41 115
e 41 125
e 41 127
e 41 132
e 41 136
e 41 143
e 41 163
e 41 167
e 41 169
e 41 184
e 41 186
e 41 190
e 41 198
e 41 199
e 41 208
e 41 229
e 42 47
e 42 53
e 42 62
e 42 63
e 42 72
e 42 73
e 42 77
e 42 88
e 42 90
e 42 100
e 42 101
e 42 104
e 42 107
e 42 109
e 42 116
e 42 129
e 42 131
e 42 156
e 42 157
e 42 162
e 42 189
e 42 195
e 42 197
e 42 199
e 42 209
e 42 224
e 43 51
e 43 65
e 43 68
e 43 79
e 43 81
e 43 91
e 43 99
e 43 104
e 43 109
e 43 113
e 43 119
e 43 120
e 43 158
e 43 161
e 43 162
e 43 180
e 43 183
e 43 185
e 43 193
e 43 211
e 43 220
e 43 223
e 43 227
e 44 49
e 44 51
e 44 56
e 44 63
e 44 68
e 44 69
e 44 71
e 44 96
e 44 97
e 44 117
e 44 120
e 44 135
e 44 139
e 44 143
e 44 144
e 44 148
e 44 161
e 44 182
e 44 188
e 44 198
e 44 209
e 44 221
e 44 223
e 45 57
e 45 65
e 45 67
e 45 77
e 45 81
e 45 82
e 45 84
e 45 116
e 45 130
e 45 131
e 45 136
e 45 138
e 45 146
e 45 152
e 45 172
e 45 175
e 45 178
e 45 187
e 45 215
e 45 224
e 45 234
e 45 235
e 45 243
e 45 246
e 46 51
e 46 53
e 46 58
e 46 59
e 46 63
e 46 65
e 46 67
e 46 77
e 46 78
e 46 90
e 46 109
e 46 121
e 46 148
e 46 150
e 46 157
e 46 158
e 46 160
e 46 164
e 46 165
e 46 191
e 46 197
e 46 212
e 46 219
e 46 226
e 47 53
e 47 64
e 47 72
e 47 78
e 47 80
e 47 84
e 47 91
e 47 92
e 47 101
e 47 103
e 47 123
e 47 124
e 47 142
e 47 144
e 47 154
e 47 157
e 47 161
e 47 170
e 47 178
e 47 194
e 47 221
e 47 224
e 47 226
e 47 232
e 48 49
e 48 56
e 48 68
e 48 74
e 48 75
e 48 90
e 48 97
e 48 102
e 48 108
e 48 125
e 48 134
e 48 164
e 48 165
e 48 171
e 48 190
e 48 203
e 48 207
e 48 216
e 48 221
e 48 224
e 48 232
e 48 235
e 48 237
e 48 239
e 48 248
e 49 59
e 49 61
e 49 87
e 49 97
e 49 102
e 49 115
e 49 117
e 49 125
e 49 129
e 49 142
e 49 156
e 49 175
e 49 191
e 49 214
e 49 233
e 49 247
e 50 52
e 50 62
e 50 68
e 50 70
e 50 78
e 50 79
e 50 84
e 50 92
e 50 103
e 50 107
e 50 124
e 50 128
e 50 160
e 50 172
e 50 176
e 50 180
e 50 185
e 50 202
e 50 213
e 50 222
e 50 225
e 50 231
e 51 57
e 51 70
e 51 110
e 51 118
e 51 119
e 51 129
e 51 135
e 51 141
e 51 150
e 51 166
e 51 171
e 51 172
e 51 175
e 51 176
e 51 187
e 51 195
e 51 200
e 51 207
e 51 235
e 51 236
e 52 55
e 52 64
e 52 69
e 52 70
e 52 74
e 52 82
e 52 83
e 52 95
e 52 97
e 52 142
e 52 156
e 52 166
e 52 168
e 52 169
e 52 176
e 52 190
e 52 192
e 52 201
e 52 202
e 52 204
e 52 225
e 52 234
e 52 237
e 52 246
e 53 57
e 53 58
e 53 66
e 53 69
e 53 73
e 53 81
e 53 83
e 53 95
e 53 100
e 53 101
e 53 104
e 53 111
e 53 119
e 53 130
e 53 137
e 53 143
e 53 198
e 53 212
e 53 231
e 53 241
e 54 62
e 54 64
e 54 68
e 54 74
e 54 81
e 54 85
e 54 91
e 54 95
e 54 98
e 54 100
e 54 116
e 54 119
e 54 131
e 54 143
e 54 145
e 54 147
e 54 166
e 54 168
e 54 170
e 54 174
e 54 180
e 54 183
e 54 184
e 54 221
e 54 230
e 54 241
e 55 63
e 55 70
e 55 71
e 55 84
e 55 89
e 55 95
e 55 98
e 55 109
e 55 122
e 55 125
e 55 128
e 55 141
e 55 146
e 55 148
e 55 153
e 55 156
e 55 170
e 55 185
e 55 188
e 55 189
e 55 200
e 55 233
e 55 248
e 56 60
e 56 75
e 56 83
e 56 86
e 56 94
e 56 106
e 56 114
e 56 127
e 56 136
e 56 143
e 56 150
e 56 169
e 56 171
e 56 186
e 56 188
e 56 201
e 56 204
e 56 205
e 56 214
e 56 234
e 56 246
e 56 248
e 57 59
e 57 60
e 57 65
e 57 77
e 57 78
e 57 79
e 57 80
e 57 115
e 57 133
e 57 135
e 57 137
e 57 141
e 57 154
e 57 158
e 57 165
e 57 168
e 57 172
e 57 183
e 57 197
e 57 207
e 57 209
e 57 213
e 57 215
e 58 62
e 58 63
e 58 66
e 58 68
e 58 72
e 58 80
e 58 88
e 58 89
e 58 109
e 58 120
e 58 124
e 58 126
e 58 149
e 58 155
e 58 163
e 58 166
e 58 213
e 58 226
e 58 227
e 58 250
e 59 71
e 59 102
e 59 112
e 59 118
e 59 125
e 59 139
e 59 140
e 59 142
e 59 152
e 59 154
e 59 173
e 59 178
e 59 186
e 59 188
e 59 192
e 59 196
e 59 198
e 59 199
e 59 227
e 60 67
e 60 69
e 60 88
e 60 94
e 60 99
e 60 106
e 60 110
e 60 118
e 60 149
e 60 169
e 60 194
e 60 201
e 60 212
e 60 220
e 60 222
e 60 230
e 61 63
e 61 77
e 61 87
e 61 88
e 61 99
e 61 110
e 61 114
e 61 122
e 61 126
e 61 128
e 61 130
e 61 141
e 61 152
e 61 166
e 61 171
e 61 183
e 61 187
e 61 196
e 61 197
e 61 209
e 61 211
e 61 216
e 61 226
e 61 241
e 62 69
e 62 89
e 62 94
e 62 95
e 62 96
e 62 100
e 62 102
e 62 150
e 62 152
e 62 157
e 62 161
e 62 164
e 62 169
e 62 172
e 62 174
e 62 178
e 62 194
e 62 221
e 62 230
e 62 243
e 62 245
e 63 65
e 63 67
e 63 70
e 63 74
e 63 92
e 63 98
e 63 103
e 63 105
e 63 107
e 63 115
e 63 124
e 63 156
e 63 170
e 63 186
e 63 213
e 63 216
e 63 224
e 63 225
e 63 232
e 63 244
e 63 248
e 64 66
e 64 77
e 64 90
e 64 96
e 64 104
e 64 108
e 64 114
e 64 132
e 64 133
e 64 134
e 64 138
e 64 155
e 64 159
e 64 172
e 64 179
e 64 184
e 64 190
e 64 196
e 64 215
e 64 222
e 64 250
e 65 67
e 65 76
e 65 78
e 65 94
e 65 100
e 65 106
e 65 111
e 65 118
e 65 121
e 65 152
e 65 161
e 65 173
e 65 191
e 65 199
e 65 237
e 65 246
e 66 79
e 66 87
e 66 129
e 66 131
e 66 147
e 66 158
e 66 165
e 66 170
e 66 179
e 66 182
e 66 204
e 66 210
e 66 219
e 66 226
e 66 228
e 66 233
e 66 240
e 66 241
e 67 80
e 67 83
e 67 84
e 67 90
e 67 99
e 67 114
e 67 121
e 67 123
e 67 131
e 67 134
e 67 142
e 67 178
e 67 182
e 67 194
e 67 204
e 67 210
e 67 222
e 67 238
e 67 239
e 67 246
e 67 247
e 68 79
e 68 90
e 68 100
e 68 102
e 68 112
e 68 113
e 68 114
e 68 120
e 68 155
e 68 179
e 68 185
e 68 196
e 68 206
e 68 211
e 68 214
e 68 243
e 68 247
e 69 83
e 69 98
e 69 103
e 69 106
e 69 116
e 69 118
e 69 121
e 69 126
e 69 140
e 69 141
e 69 147
e 69 151
e 69 168
e 69 179
e 69 185
e 69 189
e 69 220
e 69 228
e 69 231
e 69 236
e 70 79
e 70 82
e 70 104
e 70 109
e 70 133
e 70 140
e 70 144
e 70 147
e 70 153
e 70 171
e 70 180
e 70 205
e 70 209
e 70 216
e 70 218
e 70 224
e 70 231
e 70 243
e 71 84
e 71 97
e 71 101
e 71 118
e 71 122
e 71 142
e 71 143
e 71 153
e 71 154
e 71 160
e 71 165
e 71 183
e 71 188
e 71 195
e 71 229
e 71 235
e 71 245
e 72 73
e 72 75
e 72 80
e 72 114
e 72 115
e 72 131
e 72 134
e 72 140
e 72 144
e 72 147
e 72 153
e 72 161
e 72 197
e 72 198
e 72 212
e 72 213
e 72 219
e 72 238
e 73 74
e 73 75
e 73 85
e 73 93
e 73 95
e 73 103
e 73 109
e 73 112
e 73 121
e 73 132
e 73 137
e 73 151
e 73 158
e 73 168
e 73 174
e 73 176
e 73 188
e 73 190
e 73 195
e 73 200
e 73 212
e 74 88
e 74 91
e 74 98
e 74 106
e 74 118
e 74 125
e 74 150
e 74 154
e 74 156
e 74 157
e 74 162
e 74 171
e 74 172
e 74 174
e 74 180
e 74 205
e 74 225
e 75 101
e 75 102
e 75 107
e 75 125
e 75 127
e 75 136
e 75 137
e 75 140
e 75 146
e 75 162
e 75 170
e 75 174
e 75 187
e 75 194
e 75 197
e 75 214
e 75 216
e 75 240
e 75 241
e 75 244
e 76 79
e 76 82
e 76 85
e 76 87
e 76 102
e 76 106
e 76 108
e 76 111
e 76 123
e 76 126
e 76 131
e 76 149
e 76 160
e 76 165
e 76 179
e 76 184
e 76 216
e 76 240
e 77 82
e 77 99
e 77 114
e 77 115
e 77 132
e 77 137
e 77 142
e 77 157
e 77 160
e 77 202
e 77 207
e 77 208
e 77 229
e 77 231
e 77 232
e 77 240
e 78 80
e 78 84
e 78 96
e 78 117
e 78 125
e 78 128
e 78 135
e 78 146
e 78 164
e 78 180
e 78 193
e 78 197
e 78 199
e 78 200
e 78 218
e 78 234
e 79 96
e 79 98
e 79 99
e 79 108
e 79 117
e 79 130
e 79 146
e 79 154
e 79 159
e 79 172
e 79 185
e 79 200
e 79 207
e 79 215
e 79 227
e 79 242
e 80 85
e 80 89
e 80 95
e 80 108
e 80 111
e 80 122
e 80 147
e 80 153
e 80 161
e 80 169
e 80 180
e 80 194
e 80 200
e 80 220
e 81 90
e 81 106
e 81 109
e 81 118
e 81 121
e 81 123
e 81 141
e 81 165
e 81 168
e 81 171
e 81 180
e 81 188
e 81 194
e 81 206
e 81 208
e 81 211
e 81 214
e 81 215
e 81 237
e 81 250
e 82 83
e 82 98
e 82 116
e 82 117
e 82 122
e 82 124
e 82 132
e 82 141
e 82 142
e 82 150
e 82 194
e 82 195
e 82 212
e 82 216
e 82 229
e 82 249
e 83 101
e 83 102
e 83 105
e 83 108
e 83 119
e 83 129
e 83 140
e 83 153
e 83 171
e 83 194
e 83 237
e 83 241
e 83 247
e 84 91
e 84 100
e 84 103
e 84 107
e 84 116
e 84 117
e 84 127
e 84 180
e 84 183
e 84 190
e 84 204
e 84 209
e 84 216
e 84 226
e 84 227
e 84 236
e 85 90
e 85 96
e 85 100
e 85 106
e 85 111
e 85 115
e 85 132
e 85 133
e 85 146
e 85 147
e 85 171
e 85 174
e 85 175
e 85 193
e 85 197
e 85 216
e 85 222
e 85 241
e 86 87
e 86 93
e 86 105
e 86 109
e 86 122
e 86 124
e 86 144
e 86 151
e 86 153
e 86 155
e 86 169
e 86 171
e 86 177
e 86 185
e 86 196
e 86 210
e 86 225
e 86 230
e 87 93
e 87 95
e 87 96
e 87 101
e 87 105
e 87 108
e 87 111
e 87 114
e 87 192
e 87 193
e 87 208
e 87 210
e 87 225
e 87 242
e 88 89
e 88 101
e 88 119
e 88 122
e 88 126
e 88 131
e 88 144
e 88 159
e 88 163
e 88 169
e 88 207
e 88 209
e 88 220
e 88 228
e 88 233
e 88 235
e 88 240
e 88 247
e 88 250
e 89 91
e 89 92
e 89 95
e 89 109
e 89 121
e 89 124
e 89 134
e 89 146
e 89 164
e 89 171
e 89 177
e 89 189
e 89 198
e 89 200
e 89 216
e 89 237
e 89 241
e 89 245
e 90 96
e 90 126
e 90 138
e 90 149
e 90 152
e 90 159
e 90 188
e 90 198
e 90 199
e 90 201
e 90 211
e 90 222
e 90 243
e 91 93
e 91 94
e 91 97
e 91 99
e 91 104
e 91 116
e 91 118
e 91 127
e 91 132
e 91 151
e 91 183
e 91 205
e 91 206
e 91 211
e 91 241
e 91 246
e 92 95
e 92 106
e 92 119
e 92 126
e 92 127
e 92 134
e 92 141
e 92 143
e 92 152
e 92 158
e 92 160
e 92 161
e 92 163
e 92 176
e 92 183
e 92 195
e 92 229
e 92 231
e 92 240
e 93 98
e 93 102
e 93 109
e 93 112
e 93 115
e 93 118
e 93 124
e 93 130
e 93 132
e 93 148
e 93 151
e 93 154
e 93 167
e 93 180
e 93 183
e 93 190
e 93 200
e 93 207
e 93 232
e 94 97
e 94 99
e 94 107
e 94 111
e 94 142
e 94 148
e 94 164
e 94 186
e 94 189
e 94 198
e 94 229
e 95 104
e 95 114
e 95 117
e 95 121
e 95 136
e 95 143
e 95 152
e 95 154
e 95 157
e 95 166
e 95 203
e 95 206
e 95 211
e 95 222
e 95 227
e 96 98
e 96 102
e 96 114
e 96 130
e 96 138
e 96 140
e 96 176
e 96 177
e 96 185
e 96 189
e 96 195
e 96 196
e 96 203
e 96 207
e 97 110
e 97 112
e 97 123
e 97 135
e 97 159
e 97 160
e 97 177
e 97 183
e 97 189
e 97 208
e 97 211
e 97 227
e 97 234
e 97 248
e 98 110
e 98 127
e 98 135
e 98 145
e 98 163
e 98 174
e 98 182
e 98 207
e 98 209
e 98 211
e 98 213
e 98 214
e 98 230
e 99 128
e 99 139
e 99 149
e 99 169
e 99 172
e 99 179
e 99 186
e 99 188
e 99 204
e 99 214
e 99 233
e 99 245
e 100 109
e 100 117
e 100 141
e 100 153
e 100 170
e 100 201
e 100 203
e 100 208
e 100 219
e 100 224
e 100 225
e 100 236
e 100 248
e 100 249
e 101 102
e 101 111
e 101 136
e 101 137
e 101 153
e 101 163
e 101 190
e 101 191
e 101 193
e 101 196
e 101 214
e 101 220
e 101 223
e 101 228
e 101 249
e 102 114
e 102 116
e 102 128
e 102 145
e 102 152
e 102 165
e 102 168
e 102 179
e 102 212
e 102 224
e 102 229
e 102 235
e 103 108
e 103 113
e 103 117
e 103 124
e 103 127
e 103 141
e 103 151
e 103 157
e 103 164
e 103 173
e 103 207
e 103 216
e 103 244
e 103 247
e 104 105
e 104 112
e 104 122
e 104 125
e 104 132
e 104 154
e 104 171
e 104 184
e 104 202
e 104 207
e 104 216
e 104 223
e 104 233
e 104 238
e 104 250
e 105 108
e 105 109
e 105 112
e 105 115
e 105 119
e 105 120
e 105 147
e 105 173
e 105 188
e 105 193
e 105 196
e 105 202
e 105 217
e 105 223
e 105 225
e 105 232
e 105 244
e 105 248
e 106 121
e 106 122
e 106 123
e 106 127
e 106 128
e 106 151
e 106 159
e 106 163
e 106 202
e 106 208
e 106 214
e 106 239
e 107 126
e 107 152
e 107 166
e 107 170
e 107 187
e 107 188
e 107 190
e 107 195
e 107 196
e 107 207
e 107 213
e 107 215
e 107 217
e 107 228
e 107 239
e 107 242
e 108 114
e 108 125
e 108 126
e 108 128
e 108 139
e 108 142
e 108 147
e 108 150
e 108 205
e 108 207
e 108 210
e 108 221
e 108 239
e 108 250
e 109 113
e 109 124
e 109 125
e 109 138
e 109 145
e 109 167
e 109 178
e 109 191
e 109 247
e 110 117
e 110 118
e 110 120
e 110 124
e 110 136
e 110 140
e 110 154
e 110 170
e 110 175
e 110 186
e 110 202
e 110 217
e 110 224
e 110 233
e 110 234
e 110 240
e 110 246
e 110 249
e 111 115
e 111 116
e 111 137
e 111 138
e 111 141
e 111 145
e 111 150
e 111 151
e 111 152
e 111 179
e 111 188
e 111 194
e 111 203
e 111 243
e 111 249
e 112 113
e 112 117
e 112 119
e 112 121
e 112 142
e 112 147
e 112 149
e 112 162
e 112 168
e 112 192
e 112 198
e 112 199
e 112 205
e 113 131
e 113 144
e 113 147
e 113 153
e 113 158
e 113 180
e 113 181
e 113 205
e 113 209
e 113 210
e 113 228
e 113 236
e 113 241
e 113 247
e 113 248
e 114 117
e 114 137
e 114 144
e 114 168
e 114 186
e 114 202
e 114 217
e 114 222
e 115 124
e 115 130
e 115 137
e 115 138
e 115 142
e 115 156
e 115 159
e 115 184
e 115 187
e 115 198
e 115 217
e 115 218
e 116 119
e 116 138
e 116 149
e 116 160
e 116 166
e 116 174
e 116 206
e 116 213
e 116 217
e 116 224
e 116 225
e 116 230
e 117 128
e 117 134
e 117 149
e 117 181
e 117 182
e 117 186
e 117 202
e 117 213
e 117 214
e 117 223
e 117 233
e 117 236
e 118 129
e 118 172
e 118 200
e 118 201
e 118 204
e 118 205
e 118 217
e 118 233
e 119 121
e 119 151
e 119 155
e 119 159
e 119 190
e 119 204
e 119 208
e 119 215
e 119 221
e 119 222
e 120 134
e 120 143
e 120 145
e 120 147
e 120 152
e 120 162
e 120 167
e 120 173
e 120 176
e 120 217
e 120 218
e 120 248
e 121 123
e 121 143
e 121 178
e 121 180
e 121 191
e 121 193
e 121 201
e 121 214
e 121 240
e 121 250
e 122 133
e 122 137
e 122 138
e 122 147
e 122 175
e 122 186
e 122 205
e 122 218
e 122 227
e 122 235
e 122 236
e 122 237
e 122 238
e 122 249
e 123 130
e 123 131
e 123 153
e 123 158
e 123 161
e 123 175
e 123 179
e 123 200
e 123 204
e 123 218
e 123 220
e 123 227
e 123 239
e 123 243
e 123 244
e 124 127
e 124 143
e 124 151
e 124 173
e 124 187
e 124 206
e 124 235
e 125 129
e 125 133
e 125 145
e 125 164
e 125 182
e 125 227
e 125 229
e 125 238
e 125 244
e 126 134
e 126 139
e 126 140
e 126 141
e 126 142
e 126 151
e 126 163
e 126 167
e 126 181
e 126 188
e 126 198
e 126 203
e 127 140
e 127 146
e 127 158
e 127 160
e 127 162
e 127 169
e 127 171
e 127 181
e 127 196
e 127 214
e 127 222
e 128 151
e 128 160
e 128 166
e 128 167
e 128 173
e 128 179
e 128 181
e 128 183
e 128 201
e 128 226
e 129 133
e 129 149
e 129 190
e 129 203
e 129 208
e 129 210
e 129 211
e 129 218
e 129 226
e 130 141
e 130 144
e 130 170
e 130 179
e 130 182
e 130 184
e 130 187
e 130 191
e 130 203
e 130 210
e 130 222
e 130 223
e 130 228
e 130 237
e 131 136
e 131 143
e 131 176
e 131 178
e 131 192
e 131 213
e 131 229
e 131 230
e 131 231
e 131 234
e 132 133
e 132 149
e 132 156
e 132 191
e 132 199
e 132 225
e 132 230
e 132 232
e 132 235
e 132 236
e 133 137
e 133 138
e 133 157
e 133 158
e 133 165
e 133 177
e 133 181
e 133 187
e 133 193
e 133 225
e 133 226
e 133 229
e 134 139
e 134 144
e 134 201
e 134 209
e 134 212
e 134 213
e 134 230
e 134 235
e 134 238
e 134 241
e 135 136
e 135 144
e 135 153
e 135 161
e 135 165
e 135 176
e 135 183
e 135 184
e 135 189
e 135 192
e 135 204
e 135 234
e 135 239
e 136 145
e 136 177
e 136 186
e 136 188
e 136 204
e 136 249
e 137 174
e 137 180
e 137 186
e 137 189
e 137 204
e 137 211
e 137 247
e 138 157
e 138 169
e 138 170
e 138 181
e 138 199
e 138 200
e 138 205
e 138 208
e 138 221
e 138 224
e 138 238
e 139 143
e 139 151
e 139 156
e 139 167
e 139 173
e 139 178
e 139 186
e 139 187
e 139 203
e 139 205
e 139 222
e 139 245
e 139 248
e 140 144
e 140 148
e 140 177
e 140 195
e 140 198
e 140 203
e 140 217
e 140 219
e 140 239
e 141 142
e 141 152
e 141 174
e 141 183
e 141 194
e 141 219
e 142 173
e 142 176
e 142 192
e 142 208
e 142 219
e 143 151
e 143 156
e 143 162
e 143 193
e 143 197
e 143 200
e 143 220
e 144 151
e 144 153
e 144 154
e 144 169
e 144 174
e 144 185
e 144 210
e 144 243
e 145 150
e 145 161
e 145 165
e 145 169
e 145 178
e 145 194
e 145 195
e 145 198
e 145 208
e 146 155
e 146 161
e 146 176
e 146 191
e 146 195
e 146 211
e 146 220
e 146 224
e 147 156
e 147 162
e 147 181
e 147 200
e 147 205
e 147 206
e 147 231
e 148 149
e 148 159
e 148 187
e 148 189
e 148 195
e 148 207
e 148 211
e 148 213
e 148 215
e 148 226
e 148 244
e 149 156
e 149 158
e 149 161
e 149 178
e 149 227
e 149 231
e 150 157
e 150 173
e 150 183
e 150 192
e 150 201
e 150 206
e 150 209
e 150 224
e 150 229
e 150 230
e 150 240
e 151 162
e 151 168
e 151 229
e 151 230
e 151 238
e 151 243
e 152 156
e 152 157
e 152 158
e 152 167
e 152 171
e 152 240
e 153 160
e 153 174
e 153 175
e 153 181
e 153 182
e 153 200
e 153 220
e 154 167
e 154 178
e 154 201
e 154 203
e 154 217
e 154 234
e 154 239
e 154 250
e 155 156
e 155 171
e 155 201
e 155 208
e 155 209
e 155 211
e 155 219
e 155 228
e 156 164
e 156 182
e 156 194
e 156 210
e 156 213
e 156 224
e 156 245
e 156 249
e 157 166
e 157 181
e 157 196
e 157 197
e 157 200
e 157 218
e 157 226
e 157 230
e 158 159
e 158 163
e 158 196
e 158 199
e 158 202
e 158 204
e 158 206
e 158 224
e 159 170
e 159 199
e 159 215
e 159 225
e 159 226
e 159 228
e 159 233
e 159 237
e 160 161
e 160 163
e 160 166
e 160 173
e 160 179
e 160 185
e 160 187
e 160 206
e 161 173
e 161 177
e 161 191
e 161 212
e 161 231
e 161 235
e 161 243
e 162 176
e 162 180
e 162 191
e 162 195
e 162 211
e 162 234
e 162 241
e 163 184
e 163 186
e 163 195
e 163 201
e 163 205
e 163 218
e 163 238
e 164 194
e 164 202
e 164 226
e 164 237
e 164 241
e 164 242
e 165 166
e 165 203
e 165 204
e 165 213
e 165 220
e 165 230
e 165 236
e 166 167
e 166 196
e 166 238
e 167 178
e 167 198
e 167 200
e 167 203
e 167 207
e 167 212
e 167 221
e 167 228
e 168 177
e 168 182
e 168 209
e 168 210
e 168 220
e 168 222
e 168 223
e 168 226
e 168 228
e 168 238
e 168 243
e 168 244
e 169 185
e 169 191
e 169 193
e 169 194
e 169 195
e 169 217
e 169 247
e 170 172
e 170 190
e 170 192
e 170 194
e 170 217
e 170 222
e 170 236
e 171 210
e 171 228
e 171 243
e 171 246
e 172 187
e 172 197
e 172 217
e 172 245
e 173 174
e 173 180
e 173 194
e 173 206
e 173 207
e 173 214
e 174 181
e 174 210
e 174 211
e 174 212
e 175 176
e 175 184
e 175 197
e 175 210
e 175 218
e 175 227
e 175 242
e 175 247
e 176 182
e 176 197
e 176 222
e 176 245
e 177 194
e 177 203
e 177 205
e 177 217
e 177 223
e 177 234
e 177 242
e 178 187
e 178 206
e 178 213
e 178 229
e 178 242
e 178 246
e 179 185
e 179 190
e 179 197
e 179 206
e 179 221
e 179 226
e 180 208
e 180 216
e 180 223
e 180 225
e 180 236
e 180 250
e 181 212
e 181 214
e 181 215
e 181 240
e 182 219
e 182 220
e 182 235
e 182 239
e 182 250
e 183 190
e 183 209
e 183 246
e 184 206
e 184 213
e 184 219
e 184 237
e 185 191
e 185 199
e 186 208
e 187 193
e 187 217
e 187 221
e 187 232
e 187 236
e 187 248
e 188 195
e 188 205
e 188 212
e 188 223
e 188 241
e 189 203
e 189 212
e 189 219
e 189 225
e 189 233
e 189 240
e 190 218
e 190 234
e 190 238
e 190 250
e 191 209
e 191 223
e 191 235
e 192 196
e 192 198
e 192 207
e 192 218
e 193 202
e 193 224
e 193 227
e 193 242
e 193 246
e 193 248
e 194 197
e 194 236
e 196 200
e 196 213
e 196 232
e 197 204
e 197 211
e 197 246
e 198 223
e 198 226
e 198 229
e 198 235
e 199 204
e 200 217
e 201 202
e 201 207
e 201 218
e 201 226
e 201 228
e 202 221
e 202 232
e 202 234
e 202 245
e 203 231
e 203 239
e 204 215
e 204 225
e 204 231
e 204 239
e 205 212
e 205 216
e 205 218
e 205 240
e 206 242
e 207 230
e 207 241
e 208 209
e 208 220
e 208 249
e 210 219
e 210 240
e 211 228
e 211 234
e 212 229
e 212 249
e 214 223
e 214 242
e 215 222
e 215 244
e 216 243
e 216 244
e 218 219
e 218 223
e 218 224
e 219 227
e 219 237
e 220 225
e 220 245
e 221 228
e 222 244
e 224 237
e 225 247
e 226 239
e 227 238
e 229 234
e 230 236
e 233 249
e 234 245
e 236 249
e 239 249
e 240 246
e 243 246
